% From JaCoP's nonogramRepository/data006.nin
 rows = 20;
 row_rule_len = 7;
 row_rules = array2d(1..rows, 1..row_rule_len, 
[
 0,0,0,0,0,1,2,
 0,0,0,0,0,2,1,
 0,0,0,0,0,1,1,
 0,0,0,0,0,4,3,
 0,0,0,0,1,1,7,
 0,0,0,0,1,1,9,
 0,0,0,1,1,5,5,
 0,0,0,1,6,2,3,
 0,0,2,1,5,5,3,
 0,3,1,1,1,2,2,
 4,1,1,2,3,1,2,
 5,2,3,1,1,1,2,
 0,4,2,3,2,2,3,
 0,0,0,4,6,3,3,
 0,0,0,0,5,5,4,
 0,0,0,0,6,9,1,
 0,0,0,0,7,5,4,
 0,0,0,0,9,1,6,
 0,0,0,0,0,8,7,
 0,0,0,0,0,0,12
]);

 cols = 25;
 col_rule_len = 6;
 col_rules = array2d(1..cols, 1..col_rule_len, 
[
 0,0,0,0,0,4,
 0,0,0,0,1,4,
 0,0,0,1,3,4,
 0,0,0,3,1,5,
 0,0,0,1,2,5,
 0,0,1,1,1,6,
 0,0,0,6,1,5,
 0,0,0,2,2,4,
 0,0,0,2,2,4,
 0,0,2,1,1,4,
 0,0,0,4,4,4,
 0,0,0,3,5,4,
 0,0,0,4,6,3,
 0,0,3,1,3,3,
 0,3,1,3,3,2,
 3,2,1,2,2,2,
 3,2,2,1,3,1,
 0,4,1,2,2,2,
 0,3,2,1,3,2,
 0,0,4,3,3,3,
 0,0,0,4,4,3,
 0,0,0,0,9,4,
 0,0,0,0,5,4,
 0,0,0,0,0,3,
 0,0,0,0,0,2
]);

